ACTORES = {Actor1, Actor2, Actor3, Actor4, Actor5} ;

Escenas = [| 0,1,0,0,0,0,1,0,10
           | 0,1,1,1,0,1,1,1,20
           | 1,1,1,1,0,1,0,0,5
           | 0,1,1,1,0,0,1,1,5
           | 1,0,0,0,1,1,0,0,15|]; 
           
Duracion = [2,1,1,1,3,4,2,3];

% Ejecución con Gecode

% Orden de las Escenas: [5, 1, 6, 3, 4, 2, 7, 8]
% Costo: 490
% ----------
% ==========
% Finished in 7m 29s